p cnf 91 377
11 12 26 -27 -28 -31 0
12 -31 57 -73 78 -79 0
1 2 24 -32 59 0
3 -16 -50 -51 68 0
-3 -16 -19 67 91 0
-4 52 -61 -63 -84 0
-4 52 -61 78 -84 0
-5 52 78 82 84 0
-8 42 45 46 -60 0
10 21 22 69 -77 0
13 -31 57 -78 79 0
13 49 85 -86 91 0
20 22 -38 53 71 0
20 -38 41 53 -54 0
36 -37 62 -63 82 0
3 19 -50 51 68 0
-3 -19 -23 67 91 0
-17 -21 22 -69 -77 0
1 7 42 -87 0
2 3 24 -32 0
-2 -6 -65 74 0
-2 -65 74 82 0
3 16 23 51 0
3 23 56 59 0
-3 4 -66 67 0
-3 -23 -51 -89 0
-5 -6 -35 61 0
7 9 45 46 0
7 9 45 55 0
7 9 46 -47 0
-8 -69 83 88 0
10 12 26 -27 0
11 -31 57 -76 0
12 -14 58 79 0
13 49 85 -86 0
13 85 -86 91 0
-13 -49 68 90 0
-15 29 -31 -73 0
-16 -50 -89 91 0
-17 -19 -44 -72 0
18 46 47 64 0
-18 -23 -40 -60 0
-18 -23 -47 81 0
-19 -23 25 36 0
-19 -25 -27 -34 0
-19 -35 -61 65 0
23 -25 -30 -36 0
-24 -25 -28 -33 0
25 27 32 34 0
-29 -30 57 -73 0
-35 56 -61 -62 0
38 -69 70 -88 0
40 -43 46 -87 0
-49 -50 -51 -91 0
-49 -50 -68 -91 0
74 -75 76 -80 0
1 7 45 60 0
1 -42 83 -87 0
-3 4 -66 89 0
-3 -19 -68 -89 0
-3 50 66 67 0
4 -5 78 82 0
-4 52 -63 82 0
-5 -6 -65 74 0
-5 -35 52 62 0
10 -21 69 88 0
10 26 -27 34 0
11 12 -23 -28 0
12 13 57 -79 0
14 -31 -78 -79 0
-14 -31 78 80 0
-18 -23 -54 81 0
-19 -41 -48 -72 0
20 -38 -70 88 0
20 41 71 -72 0
21 60 69 70 0
-35 36 -59 62 0
1 20 21 0
1 -60 -83 0
-1 8 -70 0
-1 32 -56 0
2 6 -74 0
3 16 51 0
3 32 61 0
3 -32 59 0
3 -32 -91 0
3 -51 -91 0
-3 -16 -89 0
-3 50 66 0
4 18 38 0
4 19 -51 0
4 19 -68 0
4 23 -51 0
4 23 61 0
4 81 85 0
-4 -19 82 0
5 -52 -82 0
5 78 -84 0
6 35 -63 0
8 9 -47 0
8 9 -48 0
8 9 55 0
8 -46 -47 0
8 -46 -48 0
8 -46 55 0
-8 -9 -45 0
-8 -19 -46 0
-8 -39 -55 0
-8 45 -88 0
9 -43 45 0
-9 -40 43 0
10 83 88 0
-10 -26 28 0
-10 -70 -83 0
11 34 57 0
-11 -14 76 0
-11 -58 80 0
-12 78 -79 0
13 86 -90 0
-13 -19 -85 0
-13 -67 86 0
-13 -85 90 0
14 -19 79 0
14 30 73 0
17 19 38 0
18 42 69 0
-18 -38 -64 0
-18 -48 64 0
19 32 -33 0
19 38 64 0
19 39 41 0
19 -75 -80 0
-19 35 -59 0
-19 -47 -53 0
-19 51 -81 0
-19 -79 84 0
-20 70 72 0
-22 -41 70 0
-22 53 -70 0
-22 53 71 0
-22 70 -71 0
-22 71 -88 0
23 -25 -74 0
23 -33 -36 0
23 40 41 0
23 -50 -68 0
-23 -26 30 0
-23 65 80 0
-24 35 59 0
25 -27 33 0
25 28 -32 0
26 28 31 0
26 -28 31 0
-26 34 -57 0
27 28 57 0
-27 -33 -56 0
29 37 82 0
29 58 76 0
-32 -56 61 0
-36 -63 -65 0
37 62 63 0
38 -54 -72 0
38 -70 72 0
-40 -43 87 0
41 -53 70 0
42 70 83 0
-43 45 87 0
44 47 -64 0
-45 48 55 0
-45 48 -55 0
49 85 91 0
50 -66 67 0
-50 66 86 0
-50 -66 -89 0
51 -85 -91 0
-58 76 -80 0
66 67 -90 0
66 -67 89 0
-66 86 90 0
67 -68 91 0
70 -71 72 0
74 75 76 0
1 2 0
1 17 0
1 -32 0
1 -36 0
1 39 0
1 -52 0
1 -62 0
1 83 0
-1 -2 0
-1 7 0
-1 24 0
-1 -25 0
-1 34 0
-1 -34 0
-1 -36 0
-1 -42 0
-1 50 0
-1 -59 0
-1 -83 0
2 3 0
2 5 0
2 -35 0
2 45 0
2 65 0
-2 -6 0
-2 35 0
-2 61 0
3 7 0
3 24 0
3 -62 0
3 -67 0
3 -68 0
3 90 0
3 -91 0
-3 16 0
-3 50 0
-3 51 0
-3 -51 0
-3 65 0
-3 -68 0
-3 84 0
-3 89 0
4 16 0
4 -52 0
4 59 0
4 -67 0
4 82 0
4 -84 0
-4 78 0
-4 -78 0
5 -62 0
5 63 0
5 -63 0
5 -78 0
-5 35 0
-5 40 0
-5 -65 0
-5 74 0
6 -36 0
6 -37 0
6 -62 0
6 -82 0
-6 37 0
-6 59 0
7 40 0
7 -47 0
7 55 0
7 64 0
-7 8 0
-7 42 0
-7 -45 0
-7 -60 0
8 9 0
8 13 0
8 46 0
8 64 0
8 78 0
-8 -10 0
-8 -42 0
-8 54 0
-8 -64 0
9 -43 0
9 45 0
-9 -46 0
-9 -48 0
10 12 0
10 -28 0
10 -57 0
10 -58 0
10 -69 0
10 -70 0
10 -77 0
10 83 0
-10 -11 0
-10 24 0
-10 27 0
-10 -31 0
-10 -34 0
11 -12 0
11 14 0
11 15 0
11 26 0
11 -27 0
11 -80 0
-11 29 0
-11 31 0
-11 -57 0
12 -34 0
12 58 0
-12 31 0
-12 -48 0
-12 -57 0
-12 -58 0
-12 73 0
-12 -78 0
-12 79 0
13 -16 0
13 -31 0
13 -38 0
13 58 0
13 91 0
-13 89 0
-13 -91 0
14 -57 0
14 58 0
14 -58 0
-14 -15 0
-14 -79 0
15 25 0
15 31 0
15 -57 0
15 -58 0
-15 -30 0
-15 76 0
-15 -76 0
-16 -49 0
-16 67 0
17 18 0
17 23 0
17 44 0
17 -71 0
17 77 0
17 -77 0
-17 -40 0
-17 71 0
-17 77 0
-17 -81 0
18 21 0
18 39 0
18 -44 0
18 54 0
-18 -28 0
-18 -41 0
19 -30 0
19 -36 0
19 47 0
19 54 0
19 60 0
19 69 0
19 -74 0
19 75 0
19 81 0
19 88 0
-19 25 0
-19 -38 0
-19 43 0
-19 -43 0
-19 46 0
-19 -69 0
-19 80 0
-19 86 0
-19 89 0
-19 -89 0
-19 -90 0
20 22 0
20 -69 0
20 -70 0
-20 69 0
-20 70 0
-20 72 0
-20 77 0
21 -42 0
21 -72 0
21 -88 0
-21 -88 0
-22 55 0
-22 -70 0
-22 -71 0
-22 -88 0
23 27 0
23 34 0
23 38 0
23 54 0
23 60 0
23 -65 0
